
List of user-set options:

                                    Name   Value                used
                acceptable_compl_inf_tol = 1e+10                 yes
              acceptable_constr_viol_tol = 1e-06                 yes
                 acceptable_dual_inf_tol = 1e+10                 yes
                         acceptable_iter = 5                     yes
                          acceptable_tol = 1                     yes
                             alpha_for_y = safer-min-dual-infeas  yes
                  bound_mult_init_method = mu-based              yes
                        file_print_level = 5                     yes
                   hessian_approximation = limited-memory        yes
                           linear_solver = mumps                 yes
                      nlp_scaling_method = gradient-based        yes
                             output_file = c:\Users\szhu2\OneDrive - NASA\Documents\gitlab_repos\gtoc13\gtoc13\path_finding\binlp\__main___out/IPOPT.out  yes
                             print_level = 5                     yes
                      print_user_options = yes                   yes
                                      sb = yes                   yes
                                     tol = 1e-06                 yes
This is Ipopt version 3.14.17, running with linear solver MUMPS 5.7.3.

Number of nonzeros in equality constraint Jacobian...:    62340
Number of nonzeros in inequality constraint Jacobian.:      255
Number of nonzeros in Lagrangian Hessian.............:        0

Total number of variables............................:      500
                     variables with only lower bounds:        1
                variables with lower and upper bounds:      122
                     variables with only upper bounds:        0
Total number of equality constraints.................:      496
Total number of inequality constraints...............:        3
        inequality constraints with only lower bounds:        0
   inequality constraints with lower and upper bounds:        0
        inequality constraints with only upper bounds:        3

iter    objective    inf_pr   inf_du lg(mu)  ||d||  lg(rg) alpha_du alpha_pr  ls
   0 -1.6184124e+01 1.44e+03 1.00e+01   0.0 0.00e+00    -  0.00e+00 0.00e+00   0
   1 -1.8266849e+01 1.87e+03 1.41e+03  -0.4 1.23e+02    -  4.48e-01 1.00e+00h  1
   2 -1.7792609e+01 1.74e+03 1.69e+03   1.2 5.88e+01    -  9.84e-01 6.21e-02h  1
   3 -1.5514306e+01 1.39e+03 2.84e+03   0.4 4.55e+01    -  1.00e+00 2.43e-01f  2
   4 -9.6957784e+00 1.83e+02 3.67e+03   1.9 3.58e+01    -  3.70e-01 1.00e+00F  1
   5 -1.0705216e+01 7.42e+00 2.28e+01   1.0 3.20e+00    -  9.91e-01 1.00e+00h  1
   6 -1.1061919e+01 6.60e+00 5.06e+01  -1.1 2.16e+00    -  9.91e-01 1.00e+00h  1
   7 -1.0856433e+01 4.56e+00 4.93e+00  -0.5 5.73e+00    -  9.77e-01 5.69e-01h  1
   8 -1.0607680e+01 1.12e+00 7.22e+00  -1.3 3.01e+00    -  5.34e-01 1.00e+00h  1
   9 -1.0571716e+01 2.12e-01 2.32e+00  -2.6 1.56e+00    -  9.98e-01 1.00e+00H  1
iter    objective    inf_pr   inf_du lg(mu)  ||d||  lg(rg) alpha_du alpha_pr  ls
  10 -1.0675848e+01 2.05e+01 7.19e-01  -1.6 2.59e+00    -  1.00e+00 1.00e+00h  1
  11 -1.0699769e+01 1.51e+01 6.65e-01  -1.7 2.53e+00    -  1.00e+00 1.00e+00h  1
  12 -1.0687473e+01 3.29e+00 6.75e-01  -1.7 1.86e+00    -  1.00e+00 1.00e+00h  1
  13 -1.0709807e+01 2.41e-01 2.81e-01  -2.8 6.21e-01    -  1.00e+00 1.00e+00h  1
  14 -1.0708935e+01 9.29e-03 5.16e-03  -4.5 5.65e-02    -  1.00e+00 1.00e+00h  1
  15 -1.0708942e+01 8.86e-06 8.46e-05  -6.6 1.86e-03    -  1.00e+00 1.00e+00h  1
  16 -1.0708942e+01 4.60e-10 1.36e-08 -11.0 7.33e-06    -  1.00e+00 1.00e+00h  1

Number of Iterations....: 16

                                   (scaled)                 (unscaled)
Objective...............:  -1.0708941800145720e+01   -1.0708941800145720e+01
Dual infeasibility......:   1.3590103542515664e-08    1.3590103542515664e-08
Constraint violation....:   2.9748810295692521e-10    4.6007642140466492e-10
Variable bound violation:   0.0000000000000000e+00    0.0000000000000000e+00
Complementarity.........:   2.2486341491670249e-11    2.2486341491670249e-11
Overall NLP error.......:   1.3590103542515664e-08    1.3590103542515664e-08


Number of objective function evaluations             = 22
Number of objective gradient evaluations             = 17
Number of equality constraint evaluations            = 22
Number of inequality constraint evaluations          = 22
Number of equality constraint Jacobian evaluations   = 17
Number of inequality constraint Jacobian evaluations = 17
Number of Lagrangian Hessian evaluations             = 0
Total seconds in IPOPT                               = 2.186

EXIT: Optimal Solution Found.
